neigh_modify delay 0 every 1
pair_style   ${pair}
pair_coeff   * * ${potfile}

thermo 10
timestep 0.001 
thermo_style custom step temp ke pe enthalpy etotal lx ly lz press pxx pyy pzz
thermo_modify format float %15.8f 
